c --- [ banner ] -------------------------------------------------------------
c 
c CaDiCaL Radically Simplified CDCL SAT Solver
c Copyright (c) 2016-2021 A. Biere, M. Fleury, N. Froleyks
c 
c Version 1.5.2 a5f15211db36c3956764e18194dd5bd63bf3b5e6
c g++ (GCC) 9.3.0 -Wall -Wextra -O3 -DNDEBUG
c Fri Oct 21 01:27:37 EDT 2022 Linux gra-login3 3.10.0-1160.66.1.el7.x86_64 x86_64
c 
c --- [ limit ] --------------------------------------------------------------
c 
c setting conflict limit to 200000 conflicts (due to '200000')
c 
c --- [ parsing input ] ------------------------------------------------------
c 
c reading DIMACS file from '33.cubes6507.adj'
c opening file to read '33.cubes6507.adj'
c found 'p cnf 6160 1595484' header
c parsed 1595484 clauses in 19.63 seconds process time
c closing file '33.cubes6507.adj'
c after reading 1457566835 bytes 1390.0 MB
c 
c --- [ options ] ------------------------------------------------------------
c 
c all options are set to their default value
c 
c --- [ solving ] ------------------------------------------------------------
c 
c time measured in process time since initialization
c 
c  seconds    reductions  redundant   irredundant
c          MB     restarts       trail       variables
c            level   conflicts       glue         remaining
c 
c * 19.63 1382  0 0   0    0    0  0% 0 1595422 2300 37%
c { 20.99 1438  0 0   0    0    0  0% 0 1595422 2300 37%
c i 22.76 1486 575 0   1   32   31 31% 5 1595422 2289 37%
c i 23.62 1493 346 0   5   55   49 30% 10 1595422 2288 37%
c i 24.92 1499 150 0  17  145  101 26% 14 1595422 2287 37%
c i 25.13 1500 142 0  17  155  110 27% 15 1595422 2286 37%
c i 25.35 1500 124 0  22  190  136 28% 16 1595422 2285 37%
c i 25.37 1500 122 0  23  196  138 28% 16 1595422 2284 37%
c i 25.37 1500 120 0  23  199  140 28% 15 1595422 2283 37%
c i 25.57 1500 107 0  26  235  165 28% 16 1595422 2282 37%
c i 25.59 1500 105 0  27  239  168 28% 16 1595422 2281 37%
c - 29.75 1394 91 1  40  301  217 28% 17 223067 2281 37%
c i 29.94 1394 88 1  40  317  231 29% 16 223067 2280 37%
c i 29.97 1394 83 1  40  341  252 29% 16 223067 2279 37%
c i 30.17 1394 82 1  48  381  285 29% 18 223067 2276 37%
c i 30.86 1395 82 1  66  466  355 28% 19 223067 2270 37%
c i 30.87 1395 82 1  67  467  355 28% 19 223067 2269 37%
c i 31.58 1395 83 1  95  581  465 28% 23 223067 2268 37%
c i 33.00 1395 77 1 125  792  648 28% 23 223067 2267 37%
c } 34.42 1396 73 1 143 1001  828 28% 24 223067 2267 37%
c 
c  seconds    reductions  redundant  irredundant
c          MB     restarts       trail      variables
c            level   conflicts       glue        remaining
c 
c [ 34.42 1396  0 1 143 1001  828  0% 0 223067 2267 37%
c O 34.42 1396  1 1 143 1002  828 13% 0 223067 2267 37%
c i 34.42 1396  1 1 143 1002  828 13% 0 223067 2256 37%
c - 35.09 1490 18 2 143 1110  831 32% 14 222674 2256 37%
c i 35.27 1490 17 2 143 1241  910 32% 14 222674 2255 37%
c i 35.35 1490 17 2 143 1418 1008 32% 14 222674 2254 37%
c i 35.39 1490 21 2 143 1508 1076 32% 17 222674 2253 37%
c i 35.41 1490 22 2 143 1544 1104 32% 17 222674 2252 37%
c i 35.43 1490 23 2 143 1624 1158 31% 19 222674 2251 37%
c i 35.50 1490 22 2 143 1849 1287 31% 18 222674 2250 37%
c - 35.94 1489 23 3 144 2322 1216 31% 19 222658 2250 37%
c i 36.45 1488 24 3 144 2968 1552 49% 19 222658 2249 37%
c ] 36.46 1488 24 3 144 3001 1573 49% 20 222658 2249 37%
c { 36.46 1488 73 3 144 3001 1573 76% 24 222658 2249 37%
c F 36.51 1488 73 3 145 3003 1575 76% 24 222658 2249 37%
c i 37.03 1488 61 3 148 3332 1838 69% 22 222658 2248 36%
c i 37.33 1488 60 3 164 3421 1905 67% 22 222658 2247 36%
c i 37.43 1488 60 3 164 3450 1931 66% 22 222658 2246 36%
c i 37.64 1488 62 3 168 3491 1965 66% 23 222658 2245 36%
c - 40.07 1397 59 4 193 3942 1807 60% 22 222646 2245 36%
c 
c  seconds    reductions  redundant   irredundant
c          MB     restarts       trail       variables
c            level   conflicts       glue         remaining
c 
c i 40.65 1397 58 4 195 4094 1942 59% 22 222646 2244 36%
c i 41.24 1397 54 4 202 4455 2215 57% 22 222646 2243 36%
c d 43.90 1397 54 4 230 5000 2661 54% 22 222633 2239 36%
c 2 43.95 1397 54 4 230 5000 4052 54% 22 222621 2239 36%
c p 49.57 1397 54 4 230 5000 7813 54% 22 222621 2201 36%
c d 49.90 1397 54 4 230 5000 7694 54% 22 204204 2197 36%
c - 52.48 1341 48 5 289 5963 2860 53% 22 204204 2197 36%
c # 52.57 1341 48 5 289 6005 2894 53% 22 204204 2197 36%
c } 55.85 1341 48 5 417 7003 3743 52% 23 204204 2197 36%
c [ 55.85 1341 24 5 417 7003 3743 49% 20 204204 2197 36%
c - 56.92 1341 33 6 418 8322 3356 50% 26 204204 2197 36%
c I 57.81 1341 37 6 419 10006 4533 50% 30 204204 2197 36%
c - 58.96 1342 38 7 420 11074 3646 50% 31 204204 2197 36%
c - 63.12 1342 38 8 422 14219 3896 49% 31 204204 2197 36%
c 2 64.08 1342 38 8 422 15000 5637 49% 31 204197 2197 36%
c p 65.71 1342 38 8 422 15000 9133 49% 31 204197 2196 36%
c ] 65.83 1342 38 8 422 15006 9137 49% 31 204197 2196 36%
c { 65.83 1342 48 8 422 15006 9137 52% 23 204197 2196 36%
c B 65.89 1342 48 8 422 15007 9138 52% 23 204197 2196 36%
c - 69.91 1342 40 9 489 17760 4904 51% 22 204194 2196 36%
c 
c  seconds    reductions   redundant   irredundant
c          MB     restarts        trail       variables
c            level    conflicts       glue         remaining
c 
c s 71.30 1342 38 9 533 18879 5494 51% 21 203050 2196 36%
c v 73.71 1342 38 9 533 18879 5494 51% 21 203044 2196 36%
c t 73.78 1342 38 9 533 18879 5487 51% 21 203030 2196 36%
c e 74.53 1343 38 9 533 18879 5006 51% 21 200584 871 14%
c s 74.62 1343 38 9 533 18879 5006 51% 21 200495 871 14%
c W 76.78 1344 34 9 541 21010 6217 71% 19 200495 871 14%
c - 77.03 1344 33 10 541 21691 4609 71% 19 200495 871 14%
c } 77.11 1344 32 10 541 22017 4788 71% 19 200495 871 14%
c 1 77.11 1344 32 10 541 22017 4788 71% 19 200495 871 14%
c 
c --- [ writing output ] -----------------------------------------------------
c 
c writing simplified CNF to DIMACS file 'simp/33.cubes6507.adj.simp1'
c * 77.11 1344 32 10 541 22017 4788 71% 19 200495 871 14%
c opening file to write 'simp/33.cubes6507.adj.simp1'
c writing 'p cnf 6160 200495' header
c closing file 'simp/33.cubes6507.adj.simp1'
c after writing 94575451 bytes 90.2 MB
c wrote 200495 clauses in 0.66 seconds process time
c 
c --- [ writing extension ] --------------------------------------------------
c 
c writing extension stack to 'simp/33.cubes6507.adj.ext1'
c opening file to write 'simp/33.cubes6507.adj.ext1'
c closing file 'simp/33.cubes6507.adj.ext1'
c after writing 84422 bytes 0.1 MB
c wrote 3796 witnesses in 0.00 seconds process time
c 
c --- [ result ] -------------------------------------------------------------
c 
s SATISFIABLE
c 
c --- [ run-time profiling ] -------------------------------------------------
c 
c process time taken by individual solving procedures
c (percentage relative to process time for solving)
c 
c        45.52   79.19% search
c        33.73   58.68% unstable
c        19.63   34.15% parse
c        11.96   20.81% simplify
c        10.33   17.98% stable
c         7.25   12.62% probe
c         2.45    4.27% vivify
c         1.36    2.37% lucky
c         1.34    2.33% elim
c         0.17    0.30% subsume
c         0.09    0.16% walk
c         0.06    0.11% ternary
c   =================================
c        57.48   73.90% solve
c 
c last line shows process time for solving
c (percentage relative to total process time)
c 
c --- [ statistics ] ---------------------------------------------------------
c 
c chronological:              4807        21.83 %  of conflicts
c conflicts:                 22017       383.03    per second
c decisions:                 65397      1137.70    per second
c eliminated:                 1325        21.51 %  of all variables
c fixed:                       812        13.18 %  of all variables
c learned:                   21473        97.53 %  per conflict
c learned_lits:            3520555       100.00 %  learned literals
c minimized:                     0         0.00 %  learned literals
c shrunken:                2221751        63.11 %  learned literals
c minishrunken:             240539         6.83 %  learned literals
c propagations:            3178439         0.06 M  per second
c reduced:                   10122        45.97 %  per conflict
c rephased:                      6      3669.50    interval
c restarts:                    541        40.70    interval
c stabilizing:                   2        45.43 %  of conflicts
c substituted:                   8         0.13 %  of all variables
c subsumed:                   7476         0.23 %  of all clauses
c strengthened:               4345         0.13 %  of all clauses
c ternary:                    2642         0.70 %  of resolved
c vivified:                     17         0.00 %  of all clauses
c walked:                        1     22017.00    interval
c weakened:                   2984         2.98    average size
c 
c seconds are measured in process time for solving
c 
c --- [ resources ] ----------------------------------------------------------
c 
c total process time since initialization:        77.78    seconds
c total real time since initialization:           77.88    seconds
c maximum resident set size of process:         1582.10    MB
c 
c --- [ shutting down ] ------------------------------------------------------
c 
c exit 10
WARNING! DIMACS header mismatch: wrong number of variables.
============================[ Problem Statistics ]=============================
|                                                                             |
|  Number of variables:          6120                                         |
|  Number of clauses:          200499                                         |
|  Parse time:                   1.23 s                                       |
|  Simplification time:          0.02 s                                       |
|                                                                             |
============================[ Search Statistics ]====================================================
| Conflicts |          ORIGINAL         |          LEARNT          | Num Sols |      SUBGRAPHS      |
|           |    Vars  Clauses Literals |    Limit  Clauses Lit/Cl |          | Canonical Noncanon. |
=====================================================================================================
|       100 |    6028   200499 20353083 |     2000      100    108 |        0 |        17         0 |
|       431 |    6028   200680 20355141 |     2000      431     44 |        0 |       116       181 |
|       709 |    6028   200733 20355831 |     2000      709     55 |        0 |       151       234 |
|      1407 |    6028   201094 20361567 |     2000     1407     47 |        0 |       306       595 |
|      2778 |    6028   201959 20374029 |     3602     1780     19 |        0 |       593      1460 |
|      3556 |    6028   201978 20374322 |     3602     2558     41 |        0 |       606      1479 |
|      5500 |    6028   202783 20385056 |     5004     2704     30 |        0 |       877      2284 |
|      9752 |    6028   205327 20417991 |     6305     4457     10 |        0 |      1755      4828 |
|     13318 |    6028   206331 20430954 |     7565     4883     43 |        0 |      2084      5832 |
|     19074 |    6028   208243 20454237 |     8792     6866     40 |        0 |      2711      7744 |
|     31370 |    6028   214773 20533997 |    11201     9771     38 |        0 |      4443     14274 |
|     40525 |    6028   215279 20540754 |    13611     7136     26 |        0 |      4620     14780 |
|     55595 |    6011   217375 20562019 |    16008     8003     17 |        0 |      5180     16876 |
=====================================================================================================
Number of solutions   : 0
Canonical subgraphs   : 6055           (22 /sec)
          order  3    : 1              (166667 /sec)
          order  4    : 1              (500000 /sec)
          order  5    : 1              (250000 /sec)
          order  6    : 1              (52632 /sec)
          order  7    : 1              (8475 /sec)
          order  8    : 2              (1362 /sec)
          order  9    : 7              (353 /sec)
          order 10    : 33             (117 /sec)
          order 11    : 140            (53 /sec)
          order 12    : 704            (31 /sec)
          order 13    : 2877           (20 /sec)
          order 14    : 875            (27 /sec)
          order 15    : 1018           (22 /sec)
          order 16    : 178            (13 /sec)
          order 17    : 95             (16 /sec)
          order 18    : 92             (12 /sec)
          order 19    : 26             (11 /sec)
          order 20    : 3              (9 /sec)
          order 21    : 0              (-nan /sec)
          order 22    : 0              (-nan /sec)
Noncanonical subgraphs: 20481          (467 /sec)
          order  3    : 0              (-nan /sec)
          order  4    : 0              (-nan /sec)
          order  5    : 0              (-nan /sec)
          order  6    : 0              (-nan /sec)
          order  7    : 0              (-nan /sec)
          order  8    : 0              (-nan /sec)
          order  9    : 0              (-nan /sec)
          order 10    : 0              (-nan /sec)
          order 11    : 0              (-nan /sec)
          order 12    : 0              (-nan /sec)
          order 13    : 7569           (4281 /sec)
          order 14    : 8229           (881 /sec)
          order 15    : 606            (1418 /sec)
          order 16    : 3514           (140 /sec)
          order 17    : 305            (85 /sec)
          order 18    : 230            (74 /sec)
          order 19    : 28             (48 /sec)
          order 20    : 0              (-nan /sec)
          order 21    : 0              (-nan /sec)
Canonicity checking   : 279.384 s
Noncanonicity checking: 43.8352 s
Total canonicity time : 323.219 s
database reductions   : 12
restarts              : 194
conflicts             : 64547          (182 /sec)
decisions             : 129547         (0.00 % random) (366 /sec)
propagations          : 3307907        (9336 /sec)
conflict literals     : 4529189        (49.42 % deleted)
actual reward         : 0.210208
Memory used           : 153.00 MB
CPU time              : 354.334 s

UNSATISFIABLE
